
Value of objective function: 0.13208215

Actual values of the variables:
pL1_div_from_law         0.132082
comp_pos0                       0
comp_neg0                       0
comp_pos1                       0
comp_neg1                       0
comp_pos2                       0
comp_neg2                       0
comp_pos3                       0
comp_neg3                       0
comp_pos4                       0
comp_neg4                       0
comp_pos5                       0
comp_neg5                       0
comp_pos6                0.132082
comp_neg6                       0
comp_pos7                       0
comp_neg7                       0
comp_pos8                       0
comp_neg8                       0
comp_pos9                       0
comp_neg9                       0
comp_pos10                      0
comp_neg10                      0
comp_pos11                      0
comp_neg11                      0
comp_pos12                      0
comp_neg12                      0
comp_pos13                      0
comp_neg13                      0
z_c0_t0               1.32138e+10
p0_c0_t0              6.03292e+08
p1_c0_t0               1.0423e+08
p2_c0_t0              1.22212e+10
p3_c0_t0              2.85119e+08
diff0                           0
normdiff0                       0
z_c0_t1               1.47752e+10
p0_c0_t1              5.18986e+08
p1_c0_t1              1.16885e+08
p2_c0_t1              1.35462e+10
p3_c0_t1              5.93104e+08
diff1                           0
normdiff1                       0
z_c1_t0               1.65566e+10
p0_c1_t0               6.1607e+08
p1_c1_t0              1.35265e+08
p2_c1_t0              1.56349e+10
p3_c1_t0              1.70339e+08
diff2                           0
normdiff2                       0
z_c1_t1               1.94959e+10
p0_c1_t1              6.14668e+08
p1_c1_t1              1.92432e+08
p2_c1_t1               1.8481e+10
p3_c1_t1              2.07807e+08
diff3                           0
normdiff3                       0
z_c2_t0               7.24754e+09
p0_c2_t0              2.08115e+08
p1_c2_t0              5.46506e+07
p2_c2_t0               6.8342e+09
p3_c2_t0              1.50576e+08
diff4                           0
normdiff4                       0
z_c2_t1               7.97123e+09
p0_c2_t1               1.6893e+08
p1_c2_t1              6.38795e+07
p2_c2_t1              7.54261e+09
p3_c2_t1              1.95803e+08
diff5                           0
normdiff5                       0
z_c3_t0               1.22612e+10
p0_c3_t0               3.7653e+08
p1_c3_t0              9.34316e+07
p2_c3_t0              1.29523e+10
p3_c3_t0              4.58372e+08
diff6                 1.61948e+09
normdiff6                0.132082
z_c3_t1               1.42798e+10
p0_c3_t1               4.2585e+08
p1_c3_t1              9.56852e+07
p2_c3_t1              1.31503e+10
p3_c3_t1               6.0793e+08
diff7                           0
normdiff7                       0
z_c4_t0               7.97197e+09
p0_c4_t0              1.66191e+08
p1_c4_t0              1.05596e+08
p2_c4_t0               7.5793e+09
p3_c4_t0              1.20886e+08
diff8                           0
normdiff8                       0
z_c4_t1                8.9819e+09
p0_c4_t1               1.7013e+08
p1_c4_t1              9.72162e+07
p2_c4_t1              8.58089e+09
p3_c4_t1               1.3366e+08
diff9                           0
normdiff9                       0
z_c5_t0               1.00642e+10
p0_c5_t0              2.93072e+08
p1_c5_t0              8.73435e+07
p2_c5_t0              9.63342e+09
p3_c5_t0              5.03208e+07
diff10                          0
normdiff10                      0
z_c5_t1                1.2016e+10
p0_c5_t1              2.11963e+08
p1_c5_t1              8.73811e+07
p2_c5_t1              1.15584e+10
p3_c5_t1               1.5826e+08
diff11                          0
normdiff11                      0
z_c6_t0               1.81204e+10
p0_c6_t0              5.35126e+08
p1_c6_t0              1.11448e+08
p2_c6_t0              1.73095e+10
p3_c6_t0              1.64267e+08
diff12                          0
normdiff12                      0
z_c6_t1               2.06345e+10
p0_c6_t1              5.69652e+08
p1_c6_t1              1.03172e+08
p2_c6_t1              1.98272e+10
p3_c6_t1              1.34425e+08
diff13                          0
normdiff13                      0
